&control
   calculation = 'scf'
   prefix = 'Si'
   pseudo_dir = '.'
/
&system
   ecutwfc = 100
   ibrav = 0
   nat = 2
   ntyp = 1
   nbnd = 8
/
&electrons
   electron_maxstep = 100
   conv_thr = 1e-10
   diago_full_acc = .true.
   diago_david_ndim = 4
   mixing_ndim = 8
   mixing_mode = 'plain'
   diagonalization = 'david'
   mixing_beta = 0.7
/
CELL_PARAMETERS angstrom
   0.0 2.715 2.715
   2.715 0.0 2.715
   2.715 2.715 0.0
ATOMIC_SPECIES 
   Si 28.0855 si.upf
ATOMIC_POSITIONS crystal
   Si -0.125 -0.125 -0.125
   Si 0.125 0.125 0.125
K_POINTS automatic
   8 8 8 0 0 0
